20
30
4 15 16 18 19 
3 7 14 18 20 
1 2 5 9 16 
1 2 7 15 18 
4 6 8 15 18 
4 12 13 16 17 
2 3 13 17 18 
3 8 14 17 18 
4 7 18 19 20 
3 11 13 17 19 
1 
2 
3 
4 
5 
6 
7 
8 
9 
10 
11 
12 
13 
14 
15 
16 
17 
18 
19 
20 
